Route #1: 35 8 46 34 52 27 45
Route #2: 5 37 20 60 36 47 48
Route #3: 29 15 57 13 54 19 14
Route #4: 38 11 59 53 7
Route #5: 26 58 10 31 12 17
Route #6: 39 9 25 55 18 50 32
Route #7: 40 44 3 51 6 2
Route #8: 33 63 23 56 24 49 16
Route #9: 1 43 41 42 64 22 62
Route #10: 28 61 21 30 4
Cost 836